NAME : 0
COMMENT : CVRP Instance
TYPE : CVRP
DIMENSION : 573
EDGE_WEIGHT_TYPE : EUC_2D
CAPACITY : 210
NODE_COORD_SECTION
1	0.0	0.0
2	753.0	355.0
3	663.0	83.0
4	725.0	286.0
5	734.0	504.0
6	704.0	145.0
7	728.0	311.0
8	675.0	58.0
9	617.0	242.0
10	864.0	334.0
11	772.0	258.0
12	516.0	109.0
13	717.0	123.0
14	768.0	161.0
15	598.0	365.0
16	896.0	569.0
17	781.0	281.0
18	898.0	397.0
19	714.0	126.0
20	780.0	311.0
21	809.0	60.0
22	728.0	244.0
23	724.0	219.0
24	712.0	177.0
25	694.0	432.0
26	491.0	157.0
27	854.0	648.0
28	612.0	179.0
29	623.0	337.0
30	788.0	320.0
31	772.0	378.0
32	736.0	308.0
33	692.0	303.0
34	737.0	334.0
35	576.0	27.0
36	731.0	360.0
37	763.0	301.0
38	633.0	578.0
39	935.0	244.0
40	513.0	73.0
41	511.0	133.0
42	671.0	349.0
43	729.0	254.0
44	771.0	261.0
45	851.0	278.0
46	827.0	365.0
47	682.0	113.0
48	553.0	425.0
49	544.0	282.0
50	706.0	165.0
51	527.0	26.0
52	580.0	220.0
53	908.0	303.0
54	841.0	306.0
55	656.0	34.0
56	864.0	196.0
57	618.0	270.0
58	699.0	347.0
59	787.0	289.0
60	678.0	11.0
61	643.0	387.0
62	757.0	114.0
63	858.0	395.0
64	706.0	157.0
65	713.0	243.0
66	663.0	319.0
67	615.0	448.0
68	898.0	477.0
69	767.0	131.0
70	718.0	334.0
71	871.0	216.0
72	694.0	435.0
73	617.0	345.0
74	645.0	75.0
75	513.0	50.0
76	767.0	259.0
77	773.0	313.0
78	589.0	104.0
79	760.0	287.0
80	595.0	425.0
81	763.0	240.0
82	569.0	225.0
83	702.0	417.0
84	593.0	51.0
85	656.0	83.0
86	532.0	93.0
87	834.0	351.0
88	832.0	274.0
89	751.0	126.0
90	796.0	290.0
91	872.0	212.0
92	835.0	257.0
93	702.0	185.0
94	673.0	187.0
95	596.0	422.0
96	740.0	147.0
97	890.0	180.0
98	556.0	120.0
99	638.0	386.0
100	748.0	319.0
101	620.0	112.0
102	794.0	226.0
103	641.0	383.0
104	594.0	302.0
105	725.0	400.0
106	731.0	321.0
107	703.0	296.0
108	614.0	503.0
109	715.0	179.0
110	781.0	317.0
111	841.0	365.0
112	783.0	270.0
113	778.0	420.0
114	770.0	372.0
115	907.0	192.0
116	913.0	434.0
117	647.0	749.0
118	683.0	171.0
119	649.0	324.0
120	359.0	195.0
121	867.0	471.0
122	585.0	218.0
123	757.0	323.0
124	914.0	399.0
125	681.0	323.0
126	603.0	251.0
127	554.0	275.0
128	762.0	315.0
129	813.0	342.0
130	801.0	379.0
131	724.0	14.0
132	775.0	342.0
133	727.0	221.0
134	715.0	314.0
135	731.0	363.0
136	788.0	250.0
137	649.0	29.0
138	655.0	407.0
139	567.0	325.0
140	624.0	88.0
141	763.0	422.0
142	669.0	54.0
143	785.0	537.0
144	765.0	384.0
145	654.0	348.0
146	677.0	313.0
147	848.0	491.0
148	814.0	112.0
149	699.0	70.0
150	658.0	353.0
151	550.0	42.0
152	853.0	372.0
153	540.0	24.0
154	626.0	65.0
155	661.0	37.0
156	769.0	395.0
157	715.0	396.0
158	714.0	325.0
159	729.0	241.0
160	692.0	271.0
161	638.0	306.0
162	715.0	360.0
163	697.0	213.0
164	704.0	114.0
165	699.0	231.0
166	911.0	240.0
167	789.0	296.0
168	598.0	279.0
169	656.0	384.0
170	636.0	117.0
171	637.0	296.0
172	864.0	347.0
173	844.0	382.0
174	595.0	121.0
175	590.0	28.0
176	734.0	288.0
177	641.0	174.0
178	789.0	60.0
179	729.0	563.0
180	839.0	459.0
181	685.0	249.0
182	626.0	159.0
183	610.0	15.0
184	671.0	265.0
185	1000.0	201.0
186	875.0	408.0
187	419.0	38.0
188	671.0	63.0
189	693.0	73.0
190	803.0	184.0
191	690.0	55.0
192	680.0	192.0
193	511.0	191.0
194	899.0	256.0
195	610.0	110.0
196	827.0	287.0
197	672.0	526.0
198	751.0	216.0
199	755.0	311.0
200	770.0	321.0
201	750.0	262.0
202	665.0	436.0
203	595.0	339.0
204	743.0	228.0
205	748.0	421.0
206	736.0	240.0
207	747.0	298.0
208	511.0	179.0
209	753.0	707.0
210	413.0	402.0
211	628.0	437.0
212	661.0	207.0
213	737.0	328.0
214	711.0	285.0
215	655.0	325.0
216	800.0	288.0
217	804.0	352.0
218	678.0	59.0
219	623.0	79.0
220	825.0	278.0
221	736.0	469.0
222	728.0	268.0
223	675.0	177.0
224	641.0	245.0
225	686.0	180.0
226	617.0	646.0
227	903.0	84.0
228	646.0	72.0
229	778.0	409.0
230	865.0	386.0
231	928.0	420.0
232	668.0	91.0
233	702.0	123.0
234	705.0	306.0
235	574.0	355.0
236	684.0	468.0
237	700.0	483.0
238	617.0	442.0
239	629.0	426.0
240	767.0	394.0
241	750.0	212.0
242	828.0	227.0
243	544.0	253.0
244	605.0	107.0
245	746.0	356.0
246	737.0	130.0
247	638.0	79.0
248	600.0	47.0
249	734.0	377.0
250	652.0	13.0
251	482.0	164.0
252	737.0	249.0
253	740.0	161.0
254	554.0	181.0
255	623.0	270.0
256	748.0	363.0
257	655.0	305.0
258	878.0	250.0
259	638.0	311.0
260	743.0	397.0
261	663.0	78.0
262	649.0	322.0
263	718.0	309.0
264	711.0	345.0
265	750.0	222.0
266	734.0	195.0
267	691.0	372.0
268	676.0	264.0
269	793.0	263.0
270	638.0	111.0
271	717.0	372.0
272	670.0	184.0
273	635.0	112.0
274	677.0	120.0
275	708.0	173.0
276	741.0	62.0
277	483.0	71.0
278	851.0	348.0
279	776.0	165.0
280	807.0	346.0
281	659.0	341.0
282	732.0	272.0
283	815.0	259.0
284	739.0	375.0
285	907.0	319.0
286	777.0	316.0
287	756.0	77.0
288	668.0	72.0
289	766.0	304.0
290	661.0	144.0
291	599.0	97.0
292	648.0	208.0
293	696.0	412.0
294	878.0	216.0
295	507.0	50.0
296	848.0	417.0
297	673.0	295.0
298	734.0	420.0
299	676.0	104.0
300	756.0	332.0
301	667.0	238.0
302	616.0	134.0
303	692.0	255.0
304	705.0	186.0
305	675.0	191.0
306	657.0	99.0
307	760.0	418.0
308	827.0	350.0
309	662.0	529.0
310	821.0	447.0
311	759.0	191.0
312	753.0	72.0
313	859.0	378.0
314	646.0	242.0
315	896.0	475.0
316	566.0	258.0
317	645.0	338.0
318	546.0	60.0
319	748.0	263.0
320	805.0	435.0
321	785.0	387.0
322	510.0	198.0
323	937.0	390.0
324	641.0	386.0
325	759.0	274.0
326	714.0	352.0
327	674.0	332.0
328	662.0	189.0
329	712.0	354.0
330	685.0	112.0
331	628.0	73.0
332	728.0	372.0
333	703.0	99.0
334	692.0	48.0
335	746.0	335.0
336	791.0	248.0
337	579.0	98.0
338	732.0	249.0
339	503.0	63.0
340	595.0	63.0
341	877.0	228.0
342	812.0	137.0
343	788.0	235.0
344	647.0	192.0
345	738.0	410.0
346	600.0	100.0
347	742.0	417.0
348	616.0	343.0
349	830.0	330.0
350	681.0	162.0
351	809.0	41.0
352	845.0	394.0
353	714.0	51.0
354	602.0	236.0
355	590.0	57.0
356	766.0	375.0
357	746.0	391.0
358	657.0	113.0
359	630.0	128.0
360	643.0	248.0
361	623.0	315.0
362	805.0	534.0
363	639.0	178.0
364	603.0	114.0
365	779.0	398.0
366	680.0	289.0
367	994.0	383.0
368	463.0	284.0
369	715.0	367.0
370	625.0	297.0
371	773.0	278.0
372	701.0	345.0
373	729.0	331.0
374	658.0	317.0
375	807.0	287.0
376	638.0	7.0
377	669.0	12.0
378	616.0	128.0
379	587.0	403.0
380	962.0	294.0
381	717.0	278.0
382	557.0	161.0
383	565.0	465.0
384	631.0	245.0
385	816.0	144.0
386	706.0	90.0
387	771.0	428.0
388	839.0	190.0
389	786.0	419.0
390	754.0	358.0
391	687.0	82.0
392	690.0	187.0
393	692.0	441.0
394	839.0	365.0
395	763.0	191.0
396	724.0	301.0
397	791.0	198.0
398	697.0	159.0
399	661.0	220.0
400	776.0	276.0
401	736.0	431.0
402	892.0	182.0
403	602.0	33.0
404	487.0	297.0
405	747.0	65.0
406	721.0	103.0
407	744.0	240.0
408	648.0	381.0
409	571.0	6.0
410	646.0	130.0
411	758.0	317.0
412	779.0	433.0
413	737.0	308.0
414	736.0	197.0
415	585.0	87.0
416	668.0	304.0
417	863.0	289.0
418	861.0	472.0
419	628.0	358.0
420	857.0	330.0
421	755.0	375.0
422	601.0	537.0
423	759.0	310.0
424	704.0	272.0
425	642.0	346.0
426	710.0	240.0
427	877.0	382.0
428	877.0	287.0
429	573.0	197.0
430	339.0	383.0
431	651.0	320.0
432	754.0	254.0
433	694.0	52.0
434	814.0	293.0
435	703.0	274.0
436	496.0	169.0
437	766.0	182.0
438	480.0	92.0
439	847.0	178.0
440	928.0	298.0
441	871.0	664.0
442	656.0	36.0
443	753.0	175.0
444	742.0	128.0
445	760.0	363.0
446	677.0	376.0
447	761.0	383.0
448	855.0	434.0
449	773.0	366.0
450	710.0	177.0
451	762.0	378.0
452	876.0	191.0
453	801.0	250.0
454	481.0	159.0
455	839.0	209.0
456	544.0	312.0
457	749.0	288.0
458	704.0	91.0
459	647.0	158.0
460	722.0	176.0
461	608.0	213.0
462	720.0	277.0
463	757.0	350.0
464	697.0	229.0
465	890.0	258.0
466	779.0	273.0
467	949.0	223.0
468	738.0	400.0
469	674.0	438.0
470	626.0	293.0
471	716.0	467.0
472	593.0	371.0
473	872.0	314.0
474	616.0	310.0
475	670.0	454.0
476	762.0	339.0
477	676.0	366.0
478	766.0	318.0
479	753.0	389.0
480	766.0	236.0
481	671.0	75.0
482	901.0	344.0
483	737.0	290.0
484	602.0	77.0
485	784.0	319.0
486	783.0	268.0
487	792.0	335.0
488	813.0	294.0
489	768.0	302.0
490	770.0	281.0
491	798.0	190.0
492	696.0	305.0
493	714.0	336.0
494	684.0	65.0
495	686.0	329.0
496	751.0	357.0
497	667.0	260.0
498	734.0	295.0
499	538.0	203.0
500	838.0	499.0
501	104.0	364.0
502	689.0	47.0
503	621.0	231.0
504	656.0	128.0
505	595.0	31.0
506	793.0	258.0
507	844.0	287.0
508	630.0	165.0
509	537.0	118.0
510	607.0	413.0
511	783.0	359.0
512	673.0	280.0
513	756.0	224.0
514	676.0	466.0
515	609.0	102.0
516	738.0	221.0
517	556.0	84.0
518	789.0	84.0
519	624.0	239.0
520	721.0	70.0
521	711.0	338.0
522	649.0	180.0
523	229.0	166.0
524	782.0	342.0
525	759.0	222.0
526	872.0	494.0
527	589.0	39.0
528	533.0	226.0
529	704.0	206.0
530	644.0	66.0
531	830.0	288.0
532	585.0	126.0
533	660.0	72.0
534	554.0	11.0
535	755.0	300.0
536	587.0	243.0
537	708.0	115.0
538	610.0	16.0
539	774.0	505.0
540	640.0	436.0
541	683.0	210.0
542	936.0	268.0
543	795.0	414.0
544	693.0	592.0
545	817.0	108.0
546	710.0	305.0
547	739.0	217.0
548	725.0	45.0
549	638.0	118.0
550	711.0	456.0
551	783.0	128.0
552	761.0	313.0
553	866.0	479.0
554	817.0	400.0
555	554.0	297.0
556	778.0	342.0
557	654.0	271.0
558	756.0	239.0
559	748.0	41.0
560	648.0	151.0
561	701.0	286.0
562	735.0	275.0
563	792.0	334.0
564	674.0	111.0
565	754.0	300.0
566	740.0	149.0
567	798.0	531.0
568	661.0	275.0
569	530.0	155.0
570	532.0	181.0
571	587.0	360.0
572	869.0	444.0
573	794.0	227.0
DEMAND_SECTION
1	0
2	78
3	96
4	64
5	87
6	70
7	57
8	63
9	86
10	89
11	64
12	53
13	86
14	69
15	94
16	62
17	96
18	89
19	92
20	72
21	59
22	93
23	55
24	96
25	81
26	65
27	52
28	99
29	99
30	57
31	100
32	73
33	61
34	64
35	85
36	69
37	55
38	95
39	95
40	64
41	73
42	99
43	88
44	89
45	10
46	9
47	5
48	1
49	3
50	9
51	5
52	4
53	10
54	3
55	5
56	7
57	9
58	6
59	5
60	8
61	2
62	4
63	3
64	3
65	6
66	3
67	3
68	8
69	5
70	9
71	10
72	4
73	2
74	10
75	1
76	3
77	2
78	5
79	4
80	5
81	7
82	3
83	1
84	7
85	9
86	4
87	4
88	6
89	2
90	8
91	8
92	5
93	5
94	9
95	10
96	8
97	1
98	6
99	10
100	6
101	10
102	6
103	7
104	6
105	2
106	9
107	6
108	8
109	6
110	3
111	10
112	6
113	4
114	2
115	9
116	6
117	1
118	3
119	9
120	8
121	8
122	1
123	4
124	4
125	2
126	7
127	5
128	2
129	10
130	7
131	9
132	1
133	9
134	2
135	2
136	4
137	6
138	2
139	4
140	6
141	6
142	7
143	5
144	9
145	6
146	10
147	1
148	3
149	9
150	3
151	4
152	6
153	1
154	8
155	5
156	7
157	5
158	2
159	1
160	8
161	6
162	7
163	4
164	6
165	5
166	1
167	8
168	9
169	8
170	9
171	8
172	9
173	3
174	9
175	2
176	4
177	6
178	8
179	9
180	1
181	5
182	6
183	2
184	4
185	2
186	2
187	3
188	6
189	7
190	6
191	9
192	9
193	1
194	10
195	7
196	2
197	1
198	5
199	7
200	4
201	9
202	4
203	1
204	10
205	1
206	1
207	2
208	5
209	6
210	10
211	7
212	2
213	1
214	6
215	3
216	2
217	4
218	4
219	1
220	4
221	10
222	2
223	2
224	6
225	7
226	7
227	10
228	4
229	9
230	6
231	2
232	1
233	2
234	9
235	5
236	2
237	1
238	7
239	9
240	4
241	9
242	7
243	7
244	10
245	1
246	4
247	2
248	4
249	9
250	8
251	2
252	4
253	7
254	2
255	3
256	3
257	8
258	10
259	7
260	3
261	1
262	7
263	5
264	4
265	1
266	7
267	2
268	6
269	5
270	7
271	5
272	4
273	8
274	3
275	1
276	6
277	6
278	4
279	1
280	3
281	1
282	5
283	7
284	8
285	1
286	9
287	4
288	1
289	5
290	4
291	9
292	1
293	10
294	1
295	9
296	4
297	6
298	10
299	6
300	5
301	8
302	6
303	2
304	7
305	4
306	10
307	2
308	2
309	9
310	6
311	1
312	10
313	1
314	9
315	10
316	9
317	3
318	5
319	8
320	4
321	1
322	9
323	9
324	2
325	9
326	9
327	7
328	4
329	1
330	1
331	9
332	2
333	10
334	5
335	3
336	5
337	1
338	9
339	2
340	2
341	4
342	5
343	6
344	8
345	2
346	2
347	3
348	8
349	6
350	3
351	7
352	4
353	9
354	9
355	10
356	7
357	9
358	4
359	10
360	6
361	9
362	1
363	2
364	9
365	5
366	7
367	1
368	2
369	10
370	5
371	3
372	8
373	1
374	3
375	8
376	10
377	6
378	6
379	8
380	9
381	3
382	5
383	4
384	3
385	1
386	6
387	3
388	9
389	4
390	9
391	1
392	3
393	1
394	5
395	9
396	10
397	6
398	4
399	7
400	9
401	5
402	9
403	9
404	3
405	4
406	1
407	10
408	8
409	7
410	4
411	8
412	4
413	7
414	3
415	1
416	3
417	9
418	2
419	2
420	1
421	6
422	7
423	4
424	8
425	10
426	3
427	3
428	5
429	3
430	10
431	5
432	9
433	8
434	3
435	2
436	8
437	5
438	3
439	4
440	5
441	6
442	9
443	5
444	6
445	9
446	1
447	1
448	9
449	7
450	10
451	9
452	5
453	7
454	9
455	10
456	3
457	9
458	9
459	5
460	8
461	1
462	6
463	7
464	5
465	1
466	1
467	4
468	7
469	7
470	2
471	2
472	4
473	6
474	2
475	2
476	6
477	3
478	1
479	5
480	1
481	6
482	3
483	7
484	4
485	10
486	9
487	1
488	10
489	10
490	6
491	8
492	2
493	1
494	4
495	6
496	9
497	7
498	4
499	8
500	1
501	2
502	8
503	7
504	5
505	9
506	7
507	2
508	8
509	10
510	4
511	8
512	2
513	10
514	3
515	7
516	10
517	8
518	8
519	1
520	2
521	7
522	4
523	5
524	8
525	6
526	9
527	3
528	3
529	9
530	6
531	6
532	4
533	3
534	6
535	2
536	4
537	8
538	6
539	6
540	4
541	4
542	5
543	1
544	5
545	10
546	2
547	4
548	6
549	2
550	10
551	2
552	2
553	10
554	8
555	8
556	10
557	9
558	1
559	2
560	1
561	8
562	9
563	1
564	8
565	1
566	8
567	10
568	1
569	6
570	1
571	8
572	7
573	7
DEPOT_SECTION
1
-1
EOF
